





































































































2 20 17 29 14 59 10 
58 41 12 34 1 55 
48 52 51 67 23 72 
42 31 5 74 21 40 71 
38 66 30 0 49 56 
9 35 47 24 76 50 
46 73 68 13 53 28 
39 37 33 54 44 61 
75 70 6 15 45 60 
57 22 63 64 65 32 
43 8 26 3 69 27 18 
7 4 16 11 62 19 
36 25 
